NAME: burma3
TYPE: TSP
COMMENT: 14-Staedte in Burma (Zaw Win)
DIMENSION: 2
EDGE_WEIGHT_TYPE: GEO
EDGE_WEIGHT_FORMAT: FUNCTION 
DISPLAY_DATA_TYPE: COORD_DISPLAY
NODE_COORD_SECTION
   1  16.47       96.10
   2  16.47       94.44
EOF